solution status: time limit reached
objective value:                          34201.73026
y#13                                                1 	(obj:5700)
y#21                                                1 	(obj:5700)
y#26                                                1 	(obj:5700)
y#30                                                1 	(obj:5700)
y#39                                                1 	(obj:5700)
y#44                                                1 	(obj:5700)
x#1#26                                              1 	(obj:0.01615)
x#2#30                                              1 	(obj:0.03128)
x#3#39                                              1 	(obj:0.034)
x#4#13                                              1 	(obj:0.06273)
x#5#30                                              1 	(obj:0.00408)
x#6#44                                              1 	(obj:0.03587)
x#7#39                                              1 	(obj:0.03298)
x#8#44                                              1 	(obj:0.01581)
x#9#21                                              1 	(obj:0.02584)
x#10#39                                             1 	(obj:0.017)
x#11#44                                             1 	(obj:0.02482)
x#12#39                                             1 	(obj:0.04216)
x#13#30                                             1 	(obj:0.04284)
x#14#44                                             1 	(obj:0.03723)
x#15#30                                             1 	(obj:0.02567)
x#16#26                                             1 	(obj:0.01802)
x#17#21                                             1 	(obj:0.04675)
x#18#30                                             1 	(obj:0.01241)
x#19#21                                             1 	(obj:0.0323)
x#20#21                                             1 	(obj:0.02873)
x#21#13                                             1 	(obj:0.03485)
x#22#44                                             1 	(obj:0.02125)
x#23#39                                             1 	(obj:0.04777)
x#24#39                                             1 	(obj:0.01241)
x#25#21                                             1 	(obj:0.02822)
x#26#26                                             1 	(obj:0.00374)
x#27#44                                             1 	(obj:0.03893)
x#28#21                                             1 	(obj:0.05304)
x#29#26                                             1 	(obj:0.01292)
x#30#13                                             1 	(obj:0.04046)
x#31#39                                             1 	(obj:0.03757)
x#32#44                                             1 	(obj:0.01581)
x#33#26                                             1 	(obj:0.02176)
x#34#21                                             1 	(obj:0.03638)
x#35#21                                             1 	(obj:0.00136)
x#36#39                                             1 	(obj:0.01054)
x#37#13                                             1 	(obj:0.02584)
x#38#13                                             1 	(obj:0.03502)
x#39#39                                             1 	(obj:0.00867)
x#40#30                                             1 	(obj:0.04794)
x#41#21                                             1 	(obj:0.07497)
x#42#26                                             1 	(obj:0.02992)
x#43#13                                             1 	(obj:0.01156)
x#44#26                                             1 	(obj:0.02448)
x#45#26                                             1 	(obj:0.02363)
x#46#39                                             1 	(obj:0.01275)
x#47#30                                             1 	(obj:0.04658)
x#48#44                                             1 	(obj:0.01802)
x#49#30                                             1 	(obj:0.05117)
x#50#44                                             1 	(obj:0.02856)
x#51#30                                             1 	(obj:0.05168)
x#52#13                                             1 	(obj:0.01666)
x#53#44                                             1 	(obj:0.01156)
x#54#21                                             1 	(obj:0.02635)
x#55#44                                             1 	(obj:0.03536)
x#56#30                                             1 	(obj:0.01887)
x#57#44                                             1 	(obj:0.03961)
x#58#21                                             1 	(obj:0.01309)
x#59#21                                             1 	(obj:0.02771)
x#60#13                                             1 	(obj:0.04658)
